Route 1: 0 56 43 37 48 58 49 19 77 41 97 74 28 0
Route 2: 0 33 26 31 44 68 69 50 20 32 59 12 0
Route 3: 0 100 23 96 54 38 21 30 67 94 99 62 0
Route 4: 0 92 75 45 42 14 51 13 0
Route 5: 0 15 73 29 53 87 25 84 65 70 7 0
Route 6: 0 82 63 27 95 4 47 24 0
Route 7: 0 98 86 85 64 8 90 35 0
Route 8: 0 34 79 10 46 80 9 18 61 3 0
Route 9: 0 71 66 6 60 76 36 40 11 1 93 0
Route 10: 0 72 5 81 83 88 55 2 89 22 39 0
Route 11: 0 57 17 16 78 52 91 0
